18102
0 0 1 0 1 1 1 0 0 0 0 1 0 0 1 1 0 1 0 0 1 0 0 0 1 0 1 0 0 0 
6 5 6 2 6 5 4 5 4 11 26 20 6 20 4 2 17 17 5 17 4 4 26 4 26 20 2 24 5 26 4 5 6 5 20 20 24 15 4 2 17 20 15 6 15 14 6 20 17 20 4 4 14 5 6 20 17 4 4 14 17 5 20 5 11 17 15 17 26 26 6 6 5 2 15 2 26 20 4 15 20 17 6 17 4 17 2 4 20 5 2 15 2 17 2 15 2 6 4 6 6 2 17 17 2 5 4 17 2 2 14 4 2 17 17 26 24 15 24 5 11 6 5 20 6 4 5 26 4 26 11 4 24 6 6 20 4 5 20 17 17 2 20 17 20 5 11 5 2 5 